NAME : gr202
TYPE : OP
DIMENSION : 202
COST_LIMIT : 20080
ROUTE_NODES : 134
ROUTE_SCORE : 7789
ROUTE_COST : 20074
NODE_SEQUENCE_SECTION
1
5
4
8
6
7
10
17
18
11
19
21
20
26
33
35
37
130
129
128
127
28
27
29
137
138
142
23
24
25
144
145
143
139
140
141
184
186
136
135
171
173
176
177
189
188
187
149
150
151
192
191
193
194
196
195
183
182
181
180
178
174
172
165
169
164
160
159
158
157
91
89
87
94
88
98
96
95
100
112
113
101
114
115
116
117
168
167
134
133
132
126
125
122
121
120
123
39
38
118
40
41
103
104
105
106
107
108
109
110
111
99
50
49
47
45
42
44
43
56
52
55
54
57
60
59
61
62
63
65
64
72
71
69
-1
DEPOT_SECTION
1
-1
EOF
